NAME: generated_10_sym_1_50_UniformDistrib_sparse.tsp
TYPE: TSP
COMMENT: Test case generated with custom generator!
DIMENSION: 10
EDGE_WEIGHT_TYPE: EXPLICIT
EDGE_WEIGHT_FORMAT: FULL_MATRIX
DISPLAY_DATA_TYPE: TWOD_DISPLAY
EDGE_WEIGHT_SECTION
0 99999 32 11 38 99999 99999 7 99999 11 
99999 0 20 99999 37 99999 99999 99999 99999 38 
32 20 0 29 34 35 45 9 99999 99999 
11 99999 29 0 2 99999 99999 46 99999 4 
38 37 34 2 0 99999 99999 32 42 99999 
99999 99999 35 99999 99999 0 99999 20 45 99999 
99999 99999 45 99999 99999 99999 0 99999 99999 99999 
7 99999 9 46 32 20 99999 0 37 99999 
99999 99999 99999 99999 42 45 99999 37 0 27 
11 38 99999 4 99999 99999 99999 99999 27 0 
